NAME : ClusterId_246 
COMMENT : (Gillet and Johnson) 
TYPE : CVRP 
DIMENSION : 45 
EDGE_WEIGHT_TYPE : EUC_2D 
CAPACITY : 60 
NODE_COORD_SECTION 
246 -110 0 
17 -30 -30 
227 -150 40 
18 -30 0 
237 -110 50 
25 -40 -40 
209 -130 -20 
211 -130 20 
214 -90 -20 
216 -90 20 
217 -140 -30 
219 -140 30 
222 -80 -30 
224 -80 30 
225 -150 -40 
230 -70 -40 
232 -70 40 
233 -160 -50 
26 -40 0 
33 -50 -50 
34 -50 0 
201 -120 -10 
202 -120 0 
203 -120 10 
204 -110 -10 
205 -110 10 
206 -100 -10 
207 -100 0 
208 -100 10 
210 -130 0 
212 -110 -20 
213 -110 20 
215 -90 0 
218 -140 0 
220 -110 -30 
221 -110 30 
223 -80 0 
226 -150 0 
228 -110 -40 
229 -110 40 
231 -70 0 
234 -160 0 
236 -110 -50 
238 -60 -50 
239 -60 0 
DEMAND_SECTION 
246 2590
17 4
227 2
18 4
237 1
25 2
209 8
211 8
214 8
216 8
217 4
219 4
222 4
224 4
225 2
230 2
232 2
233 1
26 2
33 1
34 1
201 12
202 12
203 12
204 12
205 12
206 12
207 12
208 12
210 8
212 8
213 8
215 8
218 4
220 4
221 4
223 4
226 2
228 2
229 2
231 2
234 1
236 1
238 1
239 1
DEPOT_SECTION 
246
 -1
EOF